max : x5D + x2D + x6D;

xO2 + x32 - x23 - x2D = 0;
xO3 + x23 + x53 - x32 - x35 = 0;
x35 + x65 - x53 - x56 - x5D = 0;
x56 - x6D = 0;
xO2 + xO3 - x2D - x5D - x6D = 0;

xO2 >= 0; x2D >= 0;
xO3 >= 0; x42 >= 0;
x23 >= 0; x5D >= 0;
x32 >= 0; x56 >= 0;
x35 >= 0; x65 >= 0;
x53 >= 0; x6D >= 0;

xO2 + x32 <= 140;
xO3 + x23 + x53 <=40;
x56 <= 100;